\Problem name: <none loaded>

Minimize
obj: x0 + x1 + x2 + x3 + x4 + x5 + x6 + x7 + x8 + x9
 + x10 + x11 + x12 + x13 + x14 + x15 + x16 + x17 + x18 + x19
 + x20 + x21 + x22 + x23 + x24 + x25 + x26 + x27 + x28 + x29
Subject To
cons0:  x24 + x15 + x6 + x21 + x12 + x3 + x18 + x9 + x0 = 0
cons1:  x25 + x16 + x7 + x22 + x13 + x4 + x19 + x10 + x1 = 0
cons2:  x26 + x17 + x8 + x23 + x14 + x5 + x20 + x11 + x2 = 0
cons3:  x2 + x1 + x0 = 0
cons4:  x11 + x10 + x9 = 0
cons5:  x20 + x19 + x18 = 0
cons6:  x5 + x4 + x3 = 0
cons7:  x14 + x13 + x12 = 0
cons8:  x23 + x22 + x21 = 0
cons9:  x8 + x7 + x6 = 1
cons10:  x17 + x16 + x15 = 1
cons11:  x26 + x25 + x24 = 1
cons12:  x8 + x5 + x2 + x7 + x4 + x1 + x6 + x3 + x0 = 1
cons13:  x17 + x14 + x11 + x16 + x13 + x10 + x15 + x12 + x9 = 1
cons14:  x26 + x23 + x20 + x25 + x22 + x19 + x24 + x21 + x18 = 1
Bounds
 0 <= x0 <= 1
 0 <= x1 <= 1
 0 <= x2 <= 1
 0 <= x3 <= 1
 0 <= x4 <= 1
 0 <= x5 <= 1
 0 <= x6 <= 1
 0 <= x7 <= 1
 0 <= x8 <= 1
 0 <= x9 <= 1
 0 <= x10 <= 1
 0 <= x11 <= 1
 0 <= x12 <= 1
 0 <= x13 <= 1
 0 <= x14 <= 1
 0 <= x15 <= 1
 0 <= x16 <= 1
 0 <= x17 <= 1
 0 <= x18 <= 1
 0 <= x19 <= 1
 0 <= x20 <= 1
 0 <= x21 <= 1
 0 <= x22 <= 1
 0 <= x23 <= 1
 0 <= x24 <= 1
 0 <= x25 <= 1
 0 <= x26 <= 1
 0 <= x27 <= 1
 0 <= x28 <= 1
 0 <= x29 <= 1
End
